p cnf 200 300
1 84 0
1 45 0
1 12 0
2 106 0
2 132 0
2 91 0
3 110 0
3 89 0
3 105 0
4 109 0
4 16 0
4 198 0
5 114 0
5 136 0
5 70 0
6 98 0
6 48 0
6 7 0
7 46 0
7 41 0
8 30 0
8 189 0
8 50 0
9 32 0
9 34 0
9 173 0
10 104 0
10 55 0
10 149 0
11 93 0
11 95 0
11 20 0
12 199 0
12 165 0
13 166 0
13 76 0
13 176 0
14 166 0
14 54 0
14 28 0
15 47 0
15 33 0
15 26 0
16 132 0
16 53 0
17 71 0
17 169 0
17 51 0
18 45 0
18 90 0
18 200 0
19 22 0
19 78 0
19 34 0
20 83 0
20 136 0
21 176 0
21 52 0
21 183 0
22 130 0
22 31 0
23 118 0
23 100 0
23 194 0
24 198 0
24 25 0
24 187 0
25 112 0
25 115 0
26 124 0
26 187 0
27 35 0
27 167 0
27 84 0
28 153 0
28 80 0
29 47 0
29 63 0
29 56 0
30 168 0
30 129 0
31 95 0
31 105 0
32 115 0
32 122 0
33 184 0
33 39 0
34 115 0
35 126 0
35 108 0
36 185 0
36 112 0
36 127 0
37 183 0
37 153 0
37 97 0
38 62 0
38 50 0
38 172 0
39 177 0
39 169 0
40 171 0
40 83 0
40 42 0
41 160 0
41 78 0
42 171 0
42 161 0
43 65 0
43 92 0
43 159 0
44 197 0
44 165 0
44 81 0
45 87 0
46 135 0
46 195 0
47 183 0
48 129 0
48 163 0
49 83 0
49 140 0
49 141 0
50 146 0
51 122 0
51 100 0
52 146 0
52 68 0
53 98 0
53 158 0
54 129 0
54 128 0
55 152 0
55 179 0
56 105 0
56 107 0
57 91 0
57 125 0
57 94 0
58 86 0
58 63 0
58 69 0
59 195 0
59 170 0
59 127 0
60 184 0
60 193 0
60 180 0
61 107 0
61 102 0
61 167 0
62 118 0
62 109 0
63 143 0
64 114 0
64 162 0
64 77 0
65 181 0
65 136 0
66 192 0
66 130 0
66 67 0
67 192 0
67 82 0
68 200 0
68 72 0
69 182 0
69 181 0
70 131 0
70 113 0
71 194 0
71 98 0
72 148 0
72 102 0
73 143 0
73 111 0
73 178 0
74 76 0
74 89 0
74 173 0
75 172 0
75 117 0
75 125 0
76 150 0
77 164 0
77 139 0
78 154 0
79 128 0
79 153 0
79 109 0
80 90 0
80 132 0
81 151 0
81 93 0
82 87 0
82 161 0
84 127 0
85 121 0
85 135 0
85 89 0
86 188 0
86 199 0
87 161 0
88 144 0
88 133 0
88 117 0
90 195 0
91 191 0
92 187 0
92 177 0
93 100 0
94 178 0
94 181 0
95 99 0
96 113 0
96 177 0
96 120 0
97 194 0
97 155 0
99 148 0
99 178 0
101 103 0
101 133 0
101 108 0
102 175 0
103 175 0
103 120 0
104 176 0
104 191 0
106 119 0
106 180 0
107 143 0
108 130 0
110 190 0
110 156 0
111 137 0
111 118 0
112 122 0
113 188 0
114 147 0
116 180 0
116 120 0
116 185 0
117 152 0
119 126 0
119 137 0
121 188 0
121 157 0
123 189 0
123 184 0
123 197 0
124 156 0
124 145 0
125 196 0
126 196 0
128 169 0
131 133 0
131 168 0
134 160 0
134 151 0
134 158 0
135 197 0
137 154 0
138 158 0
138 139 0
138 162 0
139 140 0
140 142 0
141 174 0
141 146 0
142 165 0
142 185 0
144 170 0
144 155 0
145 193 0
145 170 0
147 150 0
147 196 0
148 190 0
149 191 0
149 156 0
150 168 0
151 179 0
152 159 0
154 189 0
155 186 0
157 182 0
157 164 0
159 174 0
160 186 0
162 163 0
163 193 0
164 200 0
166 171 0
167 174 0
172 173 0
175 179 0
182 192 0
186 190 0
198 199 0
g -122